NAME : XML100_3132_19
DIMENSION : 101
NB_CLUSTERS : 5
CLUSTERING_ALG : KMeans
CLUSTERING_PARAMS : k(4)
CLUSTERS
1 0
2 7 8 9 12 14 16 18 23 24 26 28 42 45 48 54 58 62 65 67 68 70 73 78 81 82 93
3 3 4 6 13 17 22 27 31 35 37 38 39 40 46 49 52 56 57 59 60 66 74 79 83 86 87 89 98
4 2 5 10 11 15 19 20 25 29 36 44 47 50 51 53 55 61 63 64 71 75 76 77 80 84 88 90 92 94 97
5 1 21 30 32 33 34 41 43 69 72 85 91 95 96 99 100
EOF